Gurobi Optimizer version 9.1.2 build v9.1.2rc0 (linux64)
Thread count: 36 physical cores, 72 logical processors, using up to 32 threads
Optimize a model with 12 rows, 57 columns and 590 nonzeros
Model fingerprint: 0xf32eec78
Model has 47 quadratic constraints
Coefficient statistics:
  Matrix range     [2e-05, 3e+00]
  QMatrix range    [1e+00, 1e+00]
  QLMatrix range   [1e+00, 1e+00]
  Objective range  [8e-03, 7e-01]
  Bounds range     [1e+00, 1e+00]
  RHS range        [1e+00, 1e+00]
Presolve removed 9 rows and 0 columns

Continuous model is non-convex -- solving as a MIP.

Presolve removed 9 rows and 0 columns
Presolve time: 0.00s
Presolved: 189 rows, 57 columns, 443 nonzeros
Presolved model has 47 bilinear constraint(s)
Variable types: 57 continuous, 0 integer (0 binary)

Root relaxation: objective -1.743721e+00, 44 iterations, 0.00 seconds

    Nodes    |    Current Node    |     Objective Bounds      |     Work
 Expl Unexpl |  Obj  Depth IntInf | Incumbent    BestBd   Gap | It/Node Time

     0     0   -1.74372    0   38          -   -1.74372      -     -    0s
H    0     0                       0.6147548   -1.74372   384%     -    0s
     0     0   -1.64739    0    1    0.61475   -1.64739   368%     -    0s
H    0     0                      -1.6450460   -1.64739  0.14%     -    0s
     0     0     cutoff    0        -1.64505   -1.64505  0.00%     -    0s

Cutting planes:
  RLT: 25
  BQP: 3

Explored 1 nodes (76 simplex iterations) in 0.01 seconds
Thread count was 32 (of 72 available processors)

Solution count 2: -1.64505 0.614755 
No other solutions better than -1.64505

Optimal solution found (tolerance 1.00e-04)
Best objective -1.645045978473e+00, best bound -1.645045978473e+00, gap 0.0000%

User-callback calls 79, time in user-callback 0.00 sec
Gurobi Optimizer version 9.1.2 build v9.1.2rc0 (linux64)
Thread count: 36 physical cores, 72 logical processors, using up to 32 threads
Optimize a model with 24 rows, 125 columns and 2580 nonzeros
Model fingerprint: 0x239982de
Model has 105 quadratic constraints
Coefficient statistics:
  Matrix range     [3e-06, 5e+01]
  QMatrix range    [1e+00, 1e+00]
  QLMatrix range   [1e+00, 1e+00]
  Objective range  [2e-02, 1e+00]
  Bounds range     [1e+00, 1e+00]
  RHS range        [1e+00, 1e+00]
Presolve removed 11 rows and 0 columns

Continuous model is non-convex -- solving as a MIP.

Presolve removed 11 rows and 0 columns
Presolve time: 0.00s
Presolved: 428 rows, 125 columns, 2018 nonzeros
Presolved model has 105 bilinear constraint(s)
Variable types: 125 continuous, 0 integer (0 binary)

Root relaxation: objective -7.911077e+00, 121 iterations, 0.00 seconds

    Nodes    |    Current Node    |     Objective Bounds      |     Work
 Expl Unexpl |  Obj  Depth IntInf | Incumbent    BestBd   Gap | It/Node Time

     0     0   -7.91108    0   75          -   -7.91108      -     -    0s
H    0     0                       0.1548759   -7.91108  5208%     -    0s
     0     0   -6.14790    0   83    0.15488   -6.14790  4070%     -    0s
H    0     0                      -1.4197655   -6.14790   333%     -    0s
     0     0   -6.13146    0   83   -1.41977   -6.13146   332%     -    0s
     0     0   -5.68169    0   70   -1.41977   -5.68169   300%     -    0s
H    0     0                      -2.2268244   -5.68169   155%     -    0s
     0     0   -5.67918    0   70   -2.22682   -5.67918   155%     -    0s
     0     0   -5.62098    0   70   -2.22682   -5.62098   152%     -    0s
     0     0   -5.61002    0   88   -2.22682   -5.61002   152%     -    0s
     0     0   -5.58829    0   70   -2.22682   -5.58829   151%     -    0s
     0     0   -5.58568    0   70   -2.22682   -5.58568   151%     -    0s
     0     0   -5.57364    0   70   -2.22682   -5.57364   150%     -    0s
     0     0   -5.57176    0   70   -2.22682   -5.57176   150%     -    0s
     0     0   -5.56915    0   83   -2.22682   -5.56915   150%     -    0s
     0     0   -5.56887    0   83   -2.22682   -5.56887   150%     -    0s
     0     0   -5.56675    0   83   -2.22682   -5.56675   150%     -    0s
H    0     0                      -2.3526655   -5.56675   137%     -    0s
H    0     0                      -2.6014067   -5.56675   114%     -    0s
H    0     0                      -2.9387470   -5.56675  89.4%     -    0s
H    0     0                      -3.0843433   -5.56675  80.5%     -    0s
H    0     0                      -3.1371140   -5.56675  77.4%     -    0s
     0     2   -5.56675    0   83   -3.13711   -5.56675  77.4%     -    0s
*  956   988              30      -3.1388165   -4.96937  58.3%  27.7    0s
*  957   988              30      -3.1389301   -4.96937  58.3%  27.6    0s
*  998   988              34      -3.3172220   -4.96937  49.8%  26.9    0s
* 1093  1148              21      -4.1777288   -4.96937  18.9%  25.4    0s
* 1201  1148              43      -4.4185999   -4.96937  12.5%  24.5    0s
* 1425  1084              27      -4.4499246   -4.84426  8.86%  23.3    0s
* 1427  1084              28      -4.4499246   -4.84426  8.86%  23.3    0s
* 1428  1084              28      -4.4499247   -4.84426  8.86%  23.3    0s
* 1726  1092              27      -4.5004322   -4.84426  7.64%  22.2    0s
* 1852  1144              28      -4.5242610   -4.70068  3.90%  21.3    0s
* 1860  1144              25      -4.5244597   -4.70068  3.89%  21.3    0s
* 2129  1144              24      -4.5339523   -4.70068  3.68%  19.5    0s
* 2334   866              19      -4.5344542   -4.63392  2.19%  18.4    0s
* 2339   866              19      -4.5348474   -4.63392  2.18%  18.3    0s
* 2341   866              20      -4.5348614   -4.63392  2.18%  18.3    0s
* 2366   866              22      -4.5348919   -4.63392  2.18%  18.2    0s
* 2369   866              24      -4.5349147   -4.63392  2.18%  18.1    0s
* 2389   866              22      -4.5373941   -4.63392  2.13%  18.0    0s
* 2392   866              24      -4.5375268   -4.63392  2.12%  18.0    0s
* 2393   866              24      -4.5375329   -4.63392  2.12%  18.0    0s
* 2683   468              28      -4.5378319   -4.54216  0.10%  16.3    0s
* 2756   468              22      -4.5380088   -4.53906  0.02%  15.9    0s
* 2759   468              22      -4.5381336   -4.53906  0.02%  15.9    0s
* 2776   468              25      -4.5382072   -4.53881  0.01%  15.9    0s
* 2777   468              25      -4.5382237   -4.53881  0.01%  15.9    0s
* 2779   468              24      -4.5383332   -4.53881  0.01%  15.8    0s
* 3215    46              26      -4.5384030   -4.53857  0.00%  13.8    0s
* 3216    46              26      -4.5384031   -4.53857  0.00%  13.8    0s
* 3220    46              26      -4.5384037   -4.53857  0.00%  13.8    0s

Cutting planes:
  RLT: 73
  BQP: 9
  PSD: 78

Explored 3691 nodes (45080 simplex iterations) in 0.85 seconds
Thread count was 32 (of 72 available processors)

Solution count 10: -4.5384 -4.5384 -4.5384 ... -4.53753

Optimal solution found (tolerance 1.00e-04)
Best objective -4.538403655469e+00, best bound -4.538453492181e+00, gap 0.0011%

User-callback calls 7722, time in user-callback 0.00 sec



objective value: -4.538403655468557
objective bound: -4.53845349218106
x_opt: [1.0, 0.0, 1.0, 0.0, 0.23135354728774585, 0.0, 1.0, 1.0, 0.4137932044883032, 0.0, 0.0, 0.0, 0.8568343256041014, 0.0, 0.4573681131254244, 0.33394862957102417, 0.0, 0.0, 0.0, 0.0]
GUROBI solution time: 0.846480131149292




